800 4078 
1 112 1
1 276 1
1 331 1
1 417 1
1 475 1
1 493 1
1 536 1
1 608 1
1 619 1
1 677 1
1 692 1
2 195 1
2 247 1
2 264 1
2 290 1
2 520 1
2 561 1
2 590 1
2 615 1
2 669 1
3 50 1
3 252 1
3 284 1
3 291 1
3 306 1
3 445 1
3 485 1
3 585 1
3 732 1
4 11 1
4 162 1
4 212 1
4 531 1
4 542 1
4 549 1
4 556 1
4 559 1
4 702 1
5 34 1
5 75 1
5 292 1
5 345 1
5 346 1
5 444 1
5 520 1
5 667 1
5 712 1
5 733 1
6 27 1
6 86 1
6 176 1
6 200 1
6 317 1
6 465 1
6 626 1
6 642 1
6 735 1
6 767 1
7 19 1
7 56 1
7 67 1
7 77 1
7 87 1
7 89 1
7 133 1
7 440 1
7 559 1
7 721 1
8 72 1
8 163 1
8 223 1
8 315 1
8 491 1
8 522 1
8 627 1
8 650 1
8 702 1
8 712 1
8 779 1
9 38 1
9 233 1
9 244 1
9 340 1
9 351 1
9 371 1
9 567 1
9 610 1
9 698 1
9 713 1
10 144 1
10 184 1
10 249 1
10 303 1
10 433 1
10 500 1
10 541 1
10 747 1
10 788 1
11 135 1
11 173 1
11 222 1
11 249 1
11 287 1
11 351 1
11 400 1
11 405 1
11 551 1
11 625 1
12 38 1
12 50 1
12 319 1
12 597 1
12 605 1
12 610 1
12 631 1
12 660 1
13 60 1
13 223 1
13 410 1
13 413 1
13 427 1
13 434 1
13 472 1
13 641 1
13 706 1
13 726 1
13 791 1
14 100 1
14 106 1
14 117 1
14 209 1
14 483 1
14 489 1
14 597 1
14 708 1
14 755 1
14 776 1
14 780 1
15 37 1
15 247 1
15 420 1
15 460 1
15 673 1
15 690 1
15 726 1
16 22 1
16 44 1
16 56 1
16 133 1
16 297 1
16 304 1
16 392 1
16 447 1
16 483 1
16 737 1
16 778 1
17 244 1
17 458 1
17 549 1
17 579 1
17 580 1
17 663 1
17 677 1
17 714 1
17 779 1
17 789 1
18 36 1
18 140 1
18 194 1
18 203 1
18 241 1
18 390 1
18 402 1
18 521 1
18 683 1
18 684 1
19 36 1
19 186 1
19 305 1
19 438 1
19 456 1
19 591 1
19 612 1
19 661 1
19 692 1
19 788 1
19 793 1
20 76 1
20 128 1
20 264 1
20 310 1
20 380 1
20 499 1
20 520 1
20 663 1
20 743 1
20 756 1
21 66 1
21 148 1
21 502 1
21 549 1
21 558 1
21 567 1
21 680 1
21 707 1
21 709 1
21 791 1
22 128 1
22 179 1
22 216 1
22 272 1
22 550 1
22 565 1
22 649 1
22 675 1
22 728 1
22 786 1
23 163 1
23 359 1
23 495 1
23 530 1
23 597 1
23 652 1
23 684 1
23 692 1
23 709 1
23 797 1
24 125 1
24 157 1
24 309 1
24 312 1
24 514 1
24 551 1
24 606 1
24 767 1
25 117 1
25 264 1
25 314 1
25 359 1
25 522 1
25 622 1
25 726 1
25 789 1
26 28 1
26 141 1
26 187 1
26 298 1
26 308 1
26 409 1
26 436 1
26 535 1
26 726 1
26 755 1
27 92 1
27 175 1
27 295 1
27 312 1
27 313 1
27 339 1
27 457 1
27 629 1
27 712 1
27 744 1
28 37 1
28 261 1
28 262 1
28 269 1
28 294 1
28 311 1
28 360 1
28 400 1
28 730 1
28 750 1
29 65 1
29 66 1
29 77 1
29 166 1
29 224 1
29 513 1
29 634 1
29 699 1
29 774 1
30 47 1
30 87 1
30 97 1
30 99 1
30 181 1
30 222 1
30 271 1
30 312 1
30 500 1
30 604 1
30 655 1
31 118 1
31 217 1
31 272 1
31 330 1
31 376 1
31 378 1
31 465 1
31 550 1
31 722 1
31 769 1
32 97 1
32 204 1
32 210 1
32 211 1
32 374 1
32 575 1
32 589 1
32 659 1
32 681 1
32 791 1
33 95 1
33 135 1
33 242 1
33 260 1
33 401 1
33 533 1
33 539 1
33 549 1
33 684 1
33 743 1
34 76 1
34 123 1
34 205 1
34 251 1
34 296 1
34 406 1
34 436 1
34 611 1
34 673 1
34 719 1
34 786 1
35 201 1
35 221 1
35 278 1
35 349 1
35 426 1
35 512 1
35 524 1
35 544 1
35 550 1
35 701 1
36 75 1
36 260 1
36 293 1
36 298 1
36 339 1
36 523 1
36 598 1
36 607 1
36 624 1
36 707 1
36 779 1
37 44 1
37 94 1
37 150 1
37 151 1
37 165 1
37 215 1
37 422 1
37 453 1
37 557 1
37 682 1
38 202 1
38 356 1
38 454 1
38 482 1
38 493 1
38 596 1
38 626 1
38 642 1
38 669 1
38 728 1
39 126 1
39 210 1
39 253 1
39 280 1
39 285 1
39 322 1
39 435 1
39 670 1
39 674 1
39 779 1
40 98 1
40 188 1
40 252 1
40 296 1
40 332 1
40 343 1
40 359 1
40 452 1
40 528 1
40 750 1
41 60 1
41 71 1
41 167 1
41 214 1
41 373 1
41 389 1
41 589 1
41 690 1
41 755 1
41 791 1
42 52 1
42 95 1
42 129 1
42 291 1
42 320 1
42 348 1
42 371 1
42 512 1
42 513 1
42 748 1
43 119 1
43 208 1
43 348 1
43 379 1
43 401 1
43 568 1
43 593 1
43 689 1
43 692 1
43 714 1
44 60 1
44 104 1
44 200 1
44 303 1
44 395 1
44 422 1
44 492 1
44 712 1
45 134 1
45 260 1
45 267 1
45 290 1
45 368 1
45 418 1
45 527 1
45 537 1
45 628 1
45 643 1
45 774 1
46 52 1
46 230 1
46 242 1
46 286 1
46 487 1
46 570 1
46 604 1
46 612 1
46 622 1
46 666 1
47 67 1
47 74 1
47 103 1
47 181 1
47 457 1
47 474 1
47 491 1
47 618 1
47 626 1
47 666 1
47 745 1
48 87 1
48 448 1
48 598 1
48 642 1
48 681 1
48 689 1
48 698 1
48 708 1
48 790 1
49 93 1
49 105 1
49 230 1
49 373 1
49 404 1
49 409 1
49 463 1
49 503 1
49 573 1
49 674 1
49 761 1
50 119 1
50 244 1
50 377 1
50 407 1
50 424 1
50 440 1
50 482 1
50 502 1
50 709 1
50 762 1
51 159 1
51 177 1
51 425 1
51 433 1
51 449 1
51 548 1
51 635 1
51 669 1
51 678 1
51 750 1
52 105 1
52 123 1
52 126 1
52 243 1
52 251 1
52 376 1
52 557 1
52 648 1
52 667 1
52 735 1
53 76 1
53 248 1
53 427 1
53 546 1
53 674 1
53 677 1
53 733 1
53 780 1
54 106 1
54 205 1
54 230 1
54 270 1
54 294 1
54 425 1
55 74 1
55 154 1
55 213 1
55 221 1
55 232 1
55 284 1
55 408 1
55 508 1
55 623 1
55 740 1
56 146 1
56 169 1
56 178 1
56 192 1
56 217 1
56 271 1
56 385 1
56 667 1
56 676 1
57 104 1
57 228 1
57 288 1
57 309 1
57 403 1
57 425 1
57 428 1
57 519 1
57 725 1
57 730 1
58 132 1
58 151 1
58 169 1
58 198 1
58 263 1
58 328 1
58 448 1
58 456 1
58 700 1
58 770 1
59 125 1
59 293 1
59 306 1
59 505 1
59 531 1
59 604 1
59 735 1
60 102 1
60 262 1
60 336 1
60 347 1
60 420 1
60 457 1
60 532 1
60 662 1
60 674 1
60 748 1
60 787 1
61 97 1
61 98 1
61 156 1
61 271 1
61 417 1
61 421 1
61 595 1
61 676 1
61 683 1
61 723 1
62 216 1
62 284 1
62 318 1
62 416 1
62 503 1
62 534 1
62 546 1
62 643 1
62 657 1
62 785 1
63 303 1
63 337 1
63 354 1
63 424 1
63 461 1
63 468 1
63 480 1
63 515 1
63 519 1
63 552 1
63 779 1
64 181 1
64 218 1
64 408 1
64 563 1
64 594 1
64 633 1
64 637 1
64 643 1
64 706 1
64 794 1
65 299 1
65 368 1
65 371 1
65 396 1
65 550 1
65 563 1
65 594 1
65 661 1
65 726 1
66 97 1
66 144 1
66 185 1
66 233 1
66 254 1
66 263 1
66 395 1
66 403 1
66 588 1
66 738 1
66 796 1
67 214 1
67 242 1
67 319 1
67 413 1
67 467 1
67 478 1
67 506 1
67 544 1
68 99 1
68 105 1
68 141 1
68 292 1
68 395 1
68 453 1
68 463 1
68 565 1
68 566 1
68 682 1
69 116 1
69 181 1
69 343 1
69 360 1
69 401 1
69 522 1
69 564 1
69 602 1
69 745 1
70 117 1
70 163 1
70 377 1
70 383 1
70 384 1
70 385 1
70 608 1
70 688 1
70 756 1
71 149 1
71 166 1
71 402 1
71 610 1
71 651 1
71 658 1
72 128 1
72 216 1
72 235 1
72 349 1
72 367 1
72 447 1
72 476 1
72 491 1
72 794 1
73 222 1
73 486 1
73 500 1
73 602 1
73 640 1
73 650 1
73 695 1
73 747 1
73 800 1
74 269 1
74 322 1
74 508 1
74 515 1
74 550 1
74 579 1
74 597 1
74 760 1
75 132 1
75 252 1
75 371 1
75 474 1
75 498 1
75 557 1
75 594 1
75 641 1
75 667 1
75 706 1
76 174 1
76 260 1
76 433 1
76 455 1
76 612 1
76 677 1
76 700 1
76 744 1
77 131 1
77 207 1
77 225 1
77 227 1
77 256 1
77 274 1
77 308 1
77 471 1
77 606 1
77 742 1
78 291 1
78 320 1
78 325 1
78 334 1
78 397 1
78 502 1
78 538 1
78 744 1
78 795 1
79 134 1
79 267 1
79 406 1
79 430 1
79 534 1
79 575 1
79 592 1
79 629 1
79 656 1
80 128 1
80 263 1
80 301 1
80 385 1
80 405 1
80 541 1
80 692 1
80 724 1
80 725 1
80 730 1
81 90 1
81 101 1
81 109 1
81 121 1
81 184 1
81 324 1
81 344 1
81 374 1
81 543 1
81 591 1
81 617 1
82 100 1
82 142 1
82 283 1
82 287 1
82 407 1
82 438 1
82 497 1
82 636 1
82 648 1
83 182 1
83 193 1
83 429 1
83 461 1
83 471 1
83 499 1
83 567 1
83 633 1
83 750 1
84 182 1
84 227 1
84 337 1
84 381 1
84 461 1
84 489 1
84 504 1
84 658 1
85 184 1
85 264 1
85 296 1
85 413 1
85 456 1
85 507 1
85 558 1
85 619 1
85 676 1
86 117 1
86 148 1
86 215 1
86 226 1
86 489 1
86 492 1
86 553 1
86 682 1
87 189 1
87 312 1
87 366 1
87 375 1
87 470 1
87 476 1
87 502 1
87 694 1
88 129 1
88 254 1
88 263 1
88 398 1
88 420 1
88 460 1
88 580 1
89 190 1
89 420 1
89 482 1
89 563 1
89 583 1
89 589 1
89 695 1
90 91 1
90 167 1
90 175 1
90 244 1
90 316 1
90 326 1
90 345 1
90 570 1
90 616 1
91 96 1
91 207 1
91 341 1
91 382 1
91 388 1
91 434 1
91 624 1
91 629 1
91 712 1
91 741 1
92 113 1
92 121 1
92 199 1
92 304 1
92 444 1
92 455 1
92 538 1
92 600 1
92 652 1
93 563 1
93 617 1
93 646 1
93 650 1
93 700 1
93 754 1
94 234 1
94 258 1
94 502 1
94 743 1
94 753 1
94 779 1
94 790 1
95 241 1
95 252 1
95 415 1
95 571 1
95 650 1
95 718 1
95 771 1
96 109 1
96 190 1
96 211 1
96 254 1
96 320 1
96 347 1
96 455 1
96 642 1
97 173 1
97 237 1
97 239 1
97 326 1
97 436 1
97 480 1
97 481 1
97 487 1
97 730 1
98 155 1
98 244 1
98 253 1
98 302 1
98 309 1
98 316 1
98 411 1
98 656 1
98 690 1
98 767 1
99 207 1
99 333 1
99 413 1
99 464 1
99 577 1
99 706 1
99 714 1
99 739 1
100 105 1
100 121 1
100 178 1
100 230 1
100 415 1
100 629 1
100 665 1
100 766 1
101 235 1
101 276 1
101 379 1
101 387 1
101 478 1
101 526 1
101 592 1
101 684 1
101 723 1
101 760 1
102 106 1
102 112 1
102 189 1
102 197 1
102 347 1
102 478 1
102 519 1
102 645 1
102 706 1
102 756 1
103 112 1
103 204 1
103 301 1
103 311 1
103 330 1
103 334 1
103 386 1
103 399 1
103 569 1
103 741 1
104 137 1
104 344 1
104 361 1
104 488 1
104 509 1
104 576 1
104 618 1
104 732 1
104 741 1
105 108 1
105 253 1
105 256 1
105 406 1
105 408 1
105 423 1
105 528 1
105 542 1
105 639 1
105 681 1
106 140 1
106 205 1
106 305 1
106 532 1
106 542 1
106 572 1
106 623 1
107 273 1
107 291 1
107 535 1
107 603 1
107 617 1
107 618 1
107 677 1
107 729 1
107 780 1
107 789 1
108 147 1
108 186 1
108 206 1
108 337 1
108 400 1
108 687 1
108 714 1
108 778 1
109 353 1
109 476 1
109 492 1
109 529 1
109 692 1
109 787 1
110 145 1
110 253 1
110 262 1
110 280 1
110 345 1
110 361 1
110 559 1
110 658 1
110 776 1
110 785 1
111 134 1
111 190 1
111 399 1
111 434 1
111 465 1
111 614 1
111 702 1
111 711 1
111 752 1
112 182 1
112 336 1
112 343 1
112 407 1
112 515 1
112 560 1
112 637 1
112 691 1
112 711 1
112 792 1
113 122 1
113 261 1
113 323 1
113 715 1
113 749 1
113 791 1
114 127 1
114 169 1
114 176 1
114 182 1
114 475 1
114 476 1
114 710 1
114 791 1
115 123 1
115 152 1
115 192 1
115 229 1
115 392 1
115 553 1
115 641 1
115 653 1
115 745 1
116 175 1
116 297 1
116 418 1
116 487 1
116 490 1
116 523 1
116 594 1
116 612 1
116 667 1
116 785 1
117 147 1
117 237 1
117 294 1
117 426 1
117 505 1
117 562 1
117 684 1
117 714 1
117 730 1
118 133 1
118 229 1
118 357 1
118 381 1
118 522 1
118 528 1
118 535 1
118 576 1
118 763 1
118 790 1
119 127 1
119 283 1
119 306 1
119 413 1
119 571 1
119 662 1
119 673 1
119 681 1
119 724 1
119 768 1
120 121 1
120 124 1
120 147 1
120 223 1
120 238 1
120 686 1
120 798 1
121 175 1
121 194 1
121 307 1
121 324 1
121 577 1
121 588 1
121 720 1
121 746 1
122 136 1
122 430 1
122 467 1
122 470 1
122 471 1
122 639 1
122 668 1
123 138 1
123 197 1
123 283 1
123 413 1
123 690 1
123 753 1
123 762 1
123 783 1
124 151 1
124 278 1
124 311 1
124 337 1
124 358 1
124 442 1
124 540 1
124 570 1
124 572 1
125 340 1
125 444 1
125 521 1
125 532 1
125 572 1
125 633 1
125 671 1
125 688 1
125 764 1
126 162 1
126 258 1
126 300 1
126 387 1
126 452 1
126 504 1
126 563 1
126 615 1
126 687 1
127 243 1
127 249 1
127 366 1
127 441 1
127 503 1
127 539 1
127 634 1
127 713 1
128 230 1
128 397 1
128 403 1
128 422 1
128 471 1
128 579 1
128 671 1
128 689 1
128 757 1
129 164 1
129 437 1
129 485 1
129 504 1
129 526 1
129 554 1
129 575 1
129 762 1
129 790 1
130 216 1
130 422 1
130 428 1
130 542 1
130 613 1
130 644 1
130 755 1
131 156 1
131 208 1
131 257 1
131 264 1
131 341 1
131 457 1
131 616 1
131 778 1
132 259 1
132 287 1
132 318 1
132 343 1
132 423 1
132 448 1
132 632 1
132 792 1
132 795 1
133 211 1
133 362 1
133 368 1
133 439 1
133 672 1
133 673 1
133 694 1
133 742 1
134 217 1
134 319 1
134 359 1
134 431 1
134 440 1
134 527 1
134 778 1
135 170 1
135 185 1
135 188 1
135 308 1
135 547 1
135 662 1
135 737 1
135 777 1
136 217 1
136 271 1
136 312 1
136 462 1
136 519 1
136 586 1
136 588 1
136 707 1
136 779 1
137 245 1
137 330 1
137 432 1
137 450 1
137 514 1
137 516 1
137 529 1
137 579 1
137 586 1
137 633 1
137 763 1
138 155 1
138 268 1
138 282 1
138 300 1
138 342 1
138 577 1
138 605 1
138 655 1
138 667 1
138 714 1
139 304 1
139 317 1
139 494 1
139 581 1
139 594 1
139 725 1
139 752 1
140 149 1
140 199 1
140 218 1
140 333 1
140 410 1
140 716 1
140 766 1
140 768 1
141 370 1
141 384 1
141 393 1
141 545 1
141 582 1
141 643 1
141 678 1
141 709 1
142 313 1
142 345 1
142 424 1
142 482 1
142 612 1
142 673 1
142 725 1
143 202 1
143 226 1
143 237 1
143 244 1
143 406 1
143 590 1
143 691 1
143 798 1
144 226 1
144 284 1
144 380 1
144 387 1
144 410 1
144 578 1
144 765 1
144 780 1
145 175 1
145 203 1
145 398 1
145 507 1
145 509 1
145 545 1
145 557 1
146 202 1
146 250 1
146 292 1
146 338 1
146 505 1
146 510 1
146 521 1
146 630 1
146 648 1
146 687 1
147 178 1
147 187 1
147 267 1
147 314 1
147 615 1
147 679 1
147 681 1
147 783 1
148 240 1
148 255 1
148 280 1
148 349 1
148 420 1
148 698 1
148 738 1
148 765 1
148 788 1
148 791 1
149 152 1
149 247 1
149 353 1
149 392 1
149 394 1
149 510 1
149 612 1
149 664 1
150 160 1
150 423 1
150 473 1
150 573 1
150 640 1
150 645 1
150 707 1
150 717 1
151 157 1
151 269 1
151 310 1
151 348 1
151 390 1
151 437 1
151 487 1
151 593 1
152 224 1
152 363 1
152 413 1
152 501 1
152 512 1
152 644 1
152 647 1
152 665 1
152 732 1
152 742 1
152 764 1
153 216 1
153 280 1
153 452 1
153 545 1
153 546 1
153 580 1
153 724 1
154 200 1
154 332 1
154 417 1
154 471 1
154 529 1
154 536 1
154 571 1
154 632 1
155 259 1
155 320 1
155 356 1
155 514 1
155 533 1
155 562 1
155 594 1
155 694 1
155 751 1
156 363 1
156 427 1
156 444 1
156 494 1
156 532 1
156 756 1
157 207 1
157 250 1
157 337 1
157 356 1
157 592 1
157 740 1
158 374 1
158 442 1
158 538 1
158 582 1
158 676 1
158 726 1
159 187 1
159 258 1
159 325 1
159 383 1
159 415 1
159 622 1
160 187 1
160 299 1
160 337 1
160 362 1
160 601 1
160 653 1
160 691 1
161 203 1
161 356 1
161 391 1
161 444 1
161 476 1
161 536 1
161 552 1
161 573 1
161 633 1
161 639 1
161 689 1
162 303 1
162 314 1
162 327 1
162 390 1
162 450 1
162 549 1
162 622 1
162 674 1
162 716 1
162 748 1
163 178 1
163 219 1
163 411 1
163 633 1
163 641 1
163 669 1
163 687 1
163 735 1
163 797 1
164 205 1
164 295 1
164 323 1
164 423 1
164 453 1
164 534 1
164 614 1
164 736 1
164 787 1
165 166 1
165 272 1
165 278 1
165 392 1
165 422 1
165 436 1
165 460 1
165 618 1
165 741 1
166 237 1
166 273 1
166 360 1
166 403 1
166 716 1
166 760 1
166 794 1
167 317 1
167 373 1
167 419 1
167 432 1
167 441 1
167 448 1
167 464 1
167 508 1
168 169 1
168 180 1
168 277 1
168 508 1
168 565 1
168 647 1
168 654 1
168 658 1
168 692 1
168 774 1
169 197 1
169 288 1
169 378 1
169 384 1
169 463 1
169 467 1
169 660 1
169 704 1
169 758 1
170 325 1
170 423 1
170 433 1
170 438 1
170 479 1
170 540 1
170 560 1
170 658 1
170 722 1
171 229 1
171 361 1
171 390 1
171 412 1
171 489 1
171 538 1
171 649 1
171 691 1
171 692 1
171 744 1
171 771 1
172 173 1
172 267 1
172 345 1
172 363 1
172 365 1
172 369 1
172 626 1
172 694 1
173 179 1
173 240 1
173 333 1
173 383 1
173 473 1
173 580 1
173 636 1
173 660 1
173 693 1
174 279 1
174 283 1
174 466 1
174 510 1
174 533 1
174 551 1
174 562 1
174 755 1
175 193 1
175 265 1
175 377 1
175 382 1
175 601 1
175 626 1
175 660 1
175 669 1
175 757 1
176 188 1
176 189 1
176 216 1
176 405 1
176 425 1
176 433 1
176 521 1
176 786 1
177 189 1
177 215 1
177 372 1
177 393 1
177 443 1
177 601 1
177 645 1
177 648 1
177 795 1
178 179 1
178 207 1
178 301 1
178 493 1
178 505 1
178 561 1
178 657 1
178 658 1
179 245 1
179 252 1
179 351 1
179 398 1
179 574 1
179 607 1
179 612 1
179 770 1
180 204 1
180 227 1
180 249 1
180 382 1
180 445 1
180 592 1
180 613 1
180 647 1
180 715 1
181 453 1
181 513 1
181 612 1
181 641 1
181 740 1
181 798 1
182 356 1
182 363 1
182 430 1
182 502 1
182 587 1
182 630 1
183 219 1
183 458 1
183 503 1
183 549 1
183 566 1
183 722 1
183 761 1
183 800 1
184 255 1
184 298 1
184 309 1
184 326 1
184 471 1
184 549 1
184 682 1
184 715 1
184 771 1
185 195 1
185 257 1
185 373 1
185 453 1
185 543 1
185 574 1
185 629 1
185 673 1
185 747 1
186 274 1
186 351 1
186 504 1
186 516 1
186 518 1
186 521 1
186 647 1
186 720 1
187 290 1
187 473 1
187 586 1
187 610 1
187 646 1
187 703 1
187 799 1
188 249 1
188 325 1
188 492 1
188 519 1
188 675 1
188 712 1
189 214 1
189 231 1
189 291 1
189 350 1
189 353 1
189 380 1
189 543 1
189 547 1
189 695 1
190 471 1
190 637 1
190 767 1
190 799 1
191 291 1
191 417 1
191 673 1
191 694 1
191 750 1
192 234 1
192 253 1
192 289 1
192 334 1
192 345 1
192 421 1
192 464 1
192 474 1
192 639 1
192 774 1
193 234 1
193 260 1
193 285 1
193 423 1
193 425 1
193 539 1
193 554 1
193 585 1
193 748 1
194 214 1
194 357 1
194 451 1
194 626 1
194 659 1
194 711 1
194 718 1
194 746 1
195 284 1
195 357 1
195 393 1
195 400 1
195 602 1
196 291 1
196 340 1
196 370 1
196 424 1
196 656 1
196 689 1
196 769 1
197 199 1
197 205 1
197 308 1
197 433 1
197 501 1
197 519 1
197 711 1
197 769 1
198 215 1
198 231 1
198 262 1
198 337 1
198 373 1
198 412 1
198 539 1
198 544 1
198 787 1
198 791 1
199 433 1
199 480 1
199 640 1
199 677 1
199 778 1
200 227 1
200 450 1
200 461 1
200 482 1
200 693 1
200 710 1
201 233 1
201 381 1
201 478 1
201 526 1
201 577 1
201 730 1
202 383 1
202 393 1
202 528 1
202 590 1
202 694 1
202 713 1
202 737 1
203 239 1
203 307 1
203 339 1
203 361 1
203 419 1
203 585 1
203 798 1
204 480 1
204 511 1
204 522 1
204 523 1
204 541 1
204 620 1
204 698 1
204 720 1
204 745 1
205 300 1
205 306 1
205 338 1
205 363 1
205 386 1
205 406 1
205 500 1
205 651 1
205 695 1
206 259 1
206 294 1
206 303 1
206 401 1
206 424 1
206 490 1
206 599 1
206 643 1
206 662 1
206 793 1
207 224 1
207 335 1
207 336 1
207 354 1
207 401 1
207 472 1
207 515 1
208 265 1
208 271 1
208 361 1
208 399 1
208 459 1
208 482 1
208 488 1
208 511 1
208 573 1
208 673 1
209 244 1
209 430 1
209 521 1
209 537 1
209 705 1
209 770 1
209 796 1
210 266 1
210 374 1
210 427 1
210 502 1
210 527 1
210 545 1
210 564 1
210 711 1
211 238 1
211 409 1
211 447 1
211 492 1
211 530 1
211 613 1
211 680 1
211 691 1
211 727 1
211 761 1
212 270 1
212 299 1
212 442 1
212 476 1
212 503 1
212 635 1
212 674 1
212 767 1
212 784 1
213 267 1
213 278 1
213 372 1
213 396 1
213 421 1
213 564 1
213 643 1
213 663 1
213 690 1
214 230 1
214 297 1
214 316 1
214 318 1
214 416 1
214 635 1
214 688 1
214 781 1
215 465 1
215 474 1
215 608 1
216 403 1
216 404 1
216 414 1
216 442 1
216 467 1
216 560 1
216 572 1
216 575 1
217 307 1
217 319 1
217 329 1
217 353 1
217 382 1
217 448 1
217 541 1
217 570 1
218 235 1
218 243 1
218 541 1
218 587 1
218 594 1
218 774 1
219 256 1
219 358 1
219 439 1
219 604 1
219 629 1
219 652 1
219 759 1
220 228 1
220 235 1
220 259 1
220 284 1
220 411 1
220 587 1
220 607 1
220 640 1
220 706 1
221 260 1
221 290 1
221 425 1
221 528 1
221 583 1
221 757 1
221 792 1
222 256 1
222 276 1
222 316 1
222 343 1
222 411 1
222 474 1
222 550 1
222 604 1
223 237 1
223 434 1
223 461 1
223 462 1
223 680 1
223 682 1
223 722 1
223 791 1
224 329 1
224 449 1
224 450 1
224 578 1
224 580 1
224 701 1
225 299 1
225 407 1
225 425 1
225 462 1
225 569 1
225 607 1
225 631 1
225 796 1
226 237 1
226 333 1
226 435 1
226 481 1
226 627 1
226 633 1
226 662 1
226 736 1
227 329 1
227 391 1
227 641 1
227 785 1
228 291 1
228 600 1
228 612 1
228 724 1
228 744 1
228 795 1
229 241 1
229 279 1
229 288 1
229 359 1
229 498 1
229 617 1
229 647 1
229 658 1
229 715 1
230 287 1
230 318 1
230 320 1
230 324 1
230 377 1
230 392 1
230 396 1
230 419 1
230 466 1
230 793 1
231 257 1
231 259 1
231 402 1
231 439 1
231 497 1
231 596 1
231 656 1
231 734 1
232 267 1
232 368 1
232 427 1
232 448 1
232 469 1
232 519 1
232 641 1
232 682 1
232 718 1
233 383 1
233 429 1
233 450 1
233 529 1
233 564 1
233 587 1
233 614 1
234 244 1
234 297 1
234 425 1
234 482 1
234 597 1
234 623 1
234 630 1
234 635 1
234 656 1
234 657 1
234 743 1
235 449 1
235 543 1
235 561 1
235 596 1
235 603 1
235 609 1
235 669 1
235 783 1
236 237 1
236 328 1
236 369 1
236 467 1
236 468 1
236 599 1
236 745 1
236 749 1
237 300 1
237 406 1
237 436 1
237 492 1
237 529 1
237 637 1
238 251 1
238 322 1
238 344 1
238 379 1
238 563 1
238 781 1
238 789 1
239 315 1
239 505 1
239 523 1
239 544 1
239 590 1
239 623 1
240 431 1
240 443 1
240 486 1
240 550 1
240 631 1
240 704 1
240 746 1
241 252 1
241 388 1
241 466 1
241 537 1
241 575 1
241 626 1
241 628 1
241 703 1
242 382 1
242 478 1
242 549 1
242 703 1
242 721 1
242 752 1
243 298 1
243 480 1
243 484 1
243 502 1
243 523 1
243 690 1
243 728 1
244 292 1
244 331 1
244 435 1
244 590 1
244 683 1
244 720 1
244 726 1
244 793 1
245 354 1
245 443 1
245 558 1
245 587 1
245 590 1
245 726 1
246 274 1
246 360 1
246 363 1
246 368 1
246 546 1
246 680 1
246 748 1
247 261 1
247 339 1
247 386 1
247 392 1
247 532 1
247 614 1
247 730 1
247 799 1
248 260 1
248 296 1
248 381 1
248 612 1
248 644 1
248 652 1
248 723 1
248 750 1
249 325 1
249 357 1
249 383 1
249 497 1
249 572 1
249 607 1
249 657 1
249 670 1
249 747 1
250 274 1
250 294 1
250 427 1
250 476 1
250 616 1
250 699 1
250 759 1
251 296 1
251 300 1
251 345 1
251 371 1
251 439 1
251 449 1
251 720 1
252 521 1
252 529 1
252 560 1
252 632 1
252 664 1
252 737 1
252 793 1
253 256 1
253 348 1
253 392 1
253 410 1
253 617 1
253 640 1
253 715 1
253 751 1
254 302 1
254 340 1
254 433 1
254 466 1
254 553 1
254 620 1
254 648 1
254 723 1
254 784 1
255 365 1
255 412 1
255 459 1
255 509 1
255 598 1
255 619 1
255 621 1
255 726 1
255 785 1
256 331 1
256 347 1
256 363 1
256 469 1
256 570 1
256 596 1
256 779 1
257 370 1
257 483 1
257 517 1
257 543 1
257 562 1
257 665 1
257 750 1
257 767 1
257 783 1
258 301 1
258 314 1
258 356 1
258 500 1
258 520 1
258 525 1
258 710 1
258 735 1
258 795 1
259 309 1
259 313 1
259 367 1
259 370 1
259 395 1
259 495 1
259 619 1
260 318 1
260 390 1
260 427 1
260 521 1
260 606 1
260 716 1
261 348 1
261 401 1
261 493 1
261 510 1
261 577 1
261 634 1
261 676 1
261 724 1
262 338 1
262 344 1
262 380 1
262 479 1
262 742 1
263 330 1
263 368 1
263 421 1
263 518 1
263 520 1
263 599 1
263 722 1
264 280 1
264 305 1
264 440 1
264 584 1
264 644 1
264 707 1
264 713 1
264 721 1
264 754 1
265 428 1
265 459 1
265 466 1
265 680 1
265 693 1
265 764 1
265 796 1
266 292 1
266 336 1
266 378 1
266 562 1
266 574 1
266 625 1
266 750 1
267 270 1
267 404 1
267 457 1
267 481 1
267 574 1
267 643 1
267 707 1
267 718 1
268 312 1
268 562 1
268 584 1
268 604 1
268 610 1
268 625 1
268 726 1
268 741 1
269 305 1
269 377 1
269 571 1
269 660 1
269 666 1
269 686 1
269 706 1
269 746 1
270 306 1
270 385 1
270 462 1
270 567 1
270 678 1
270 708 1
270 759 1
271 339 1
271 430 1
271 550 1
271 551 1
271 650 1
271 704 1
271 759 1
272 415 1
272 470 1
272 611 1
272 621 1
272 649 1
273 315 1
273 420 1
273 442 1
273 458 1
273 461 1
273 677 1
273 735 1
273 760 1
274 307 1
274 321 1
274 392 1
274 420 1
274 689 1
275 350 1
275 447 1
275 456 1
275 673 1
275 706 1
275 767 1
276 282 1
276 312 1
276 357 1
276 411 1
276 612 1
276 652 1
276 657 1
276 765 1
277 341 1
277 525 1
277 575 1
277 734 1
277 761 1
277 765 1
278 351 1
278 376 1
278 398 1
278 450 1
278 571 1
278 643 1
278 759 1
279 281 1
279 283 1
279 376 1
279 507 1
279 562 1
279 587 1
279 775 1
280 371 1
280 514 1
280 637 1
280 644 1
280 744 1
281 312 1
281 317 1
281 322 1
281 341 1
281 342 1
281 361 1
281 721 1
281 780 1
282 376 1
282 392 1
282 756 1
282 757 1
282 781 1
282 788 1
283 398 1
283 490 1
283 501 1
283 574 1
283 711 1
284 361 1
284 474 1
284 503 1
284 653 1
284 711 1
284 714 1
284 784 1
285 358 1
285 426 1
285 517 1
285 618 1
285 642 1
286 440 1
286 478 1
286 775 1
287 303 1
287 439 1
287 700 1
287 705 1
287 729 1
287 744 1
287 785 1
288 313 1
288 353 1
288 379 1
288 558 1
288 660 1
288 697 1
289 360 1
289 410 1
289 453 1
289 563 1
289 655 1
289 668 1
290 385 1
290 664 1
291 375 1
291 379 1
291 415 1
291 503 1
291 575 1
291 699 1
291 721 1
291 775 1
292 310 1
292 339 1
292 512 1
292 522 1
292 523 1
292 545 1
292 625 1
293 398 1
293 420 1
293 453 1
293 496 1
293 723 1
294 354 1
294 364 1
294 371 1
294 547 1
294 577 1
294 593 1
294 652 1
295 310 1
295 370 1
295 556 1
295 729 1
295 736 1
296 406 1
296 422 1
296 553 1
296 764 1
296 789 1
297 348 1
297 411 1
297 495 1
297 563 1
297 599 1
297 649 1
297 730 1
297 778 1
298 367 1
298 381 1
298 432 1
298 499 1
298 556 1
298 595 1
299 411 1
299 463 1
299 494 1
299 513 1
299 552 1
299 667 1
299 699 1
299 747 1
299 772 1
300 336 1
300 369 1
300 375 1
300 512 1
300 517 1
300 574 1
300 662 1
300 683 1
300 785 1
301 336 1
301 344 1
301 523 1
301 553 1
301 667 1
301 670 1
301 686 1
301 703 1
301 796 1
302 410 1
302 468 1
302 642 1
302 689 1
302 755 1
303 436 1
303 475 1
303 526 1
303 558 1
303 629 1
303 700 1
303 758 1
304 349 1
304 476 1
304 485 1
304 575 1
304 584 1
304 597 1
304 627 1
305 346 1
305 509 1
305 600 1
305 664 1
305 680 1
305 724 1
306 309 1
306 339 1
306 374 1
306 555 1
306 573 1
306 618 1
306 705 1
306 736 1
306 741 1
307 346 1
307 359 1
307 596 1
307 612 1
307 685 1
307 711 1
307 759 1
308 349 1
308 365 1
308 453 1
308 473 1
308 756 1
309 331 1
309 368 1
309 380 1
309 509 1
309 735 1
309 747 1
309 758 1
310 393 1
310 441 1
310 486 1
310 554 1
310 664 1
311 357 1
311 518 1
311 522 1
311 673 1
311 731 1
311 795 1
312 357 1
312 359 1
312 439 1
312 505 1
312 590 1
312 676 1
313 332 1
313 444 1
313 512 1
313 629 1
313 645 1
313 685 1
313 740 1
314 457 1
314 477 1
314 482 1
314 587 1
314 612 1
314 622 1
314 753 1
315 357 1
315 456 1
315 469 1
315 525 1
315 526 1
315 576 1
315 634 1
316 434 1
316 638 1
316 727 1
316 789 1
317 379 1
317 450 1
317 524 1
317 699 1
317 737 1
318 364 1
318 514 1
318 584 1
318 608 1
318 626 1
318 734 1
318 789 1
319 393 1
319 472 1
319 626 1
319 627 1
320 352 1
320 466 1
320 585 1
320 596 1
320 746 1
320 748 1
321 364 1
321 417 1
321 463 1
321 602 1
321 739 1
321 764 1
322 509 1
322 516 1
322 557 1
322 669 1
323 343 1
323 374 1
323 519 1
323 548 1
323 603 1
323 690 1
323 734 1
323 748 1
324 333 1
324 454 1
324 471 1
324 504 1
324 551 1
324 584 1
324 634 1
324 641 1
324 692 1
324 769 1
325 355 1
325 472 1
325 531 1
325 623 1
325 649 1
325 730 1
325 752 1
326 391 1
326 536 1
326 578 1
326 612 1
326 742 1
326 791 1
327 395 1
327 446 1
327 503 1
327 616 1
327 631 1
327 699 1
328 426 1
328 660 1
328 681 1
328 784 1
328 790 1
329 355 1
329 418 1
329 465 1
329 638 1
329 704 1
329 705 1
329 739 1
329 798 1
330 407 1
330 507 1
330 514 1
330 575 1
330 605 1
330 797 1
331 450 1
331 457 1
331 484 1
331 571 1
331 603 1
331 616 1
331 704 1
332 403 1
332 416 1
332 495 1
332 525 1
332 535 1
333 568 1
333 585 1
333 666 1
333 765 1
333 775 1
334 365 1
334 725 1
334 726 1
334 793 1
335 469 1
335 589 1
335 591 1
335 634 1
335 731 1
335 742 1
336 405 1
336 416 1
336 457 1
336 462 1
336 507 1
336 511 1
336 700 1
337 358 1
337 438 1
337 475 1
337 534 1
337 550 1
337 698 1
337 701 1
338 341 1
338 415 1
338 434 1
338 441 1
338 693 1
338 733 1
338 755 1
339 360 1
339 416 1
339 583 1
339 723 1
339 735 1
339 776 1
340 454 1
340 508 1
340 519 1
340 531 1
340 635 1
340 749 1
340 766 1
340 774 1
341 356 1
341 401 1
341 543 1
341 581 1
341 724 1
341 760 1
341 784 1
342 406 1
342 463 1
342 470 1
342 472 1
342 508 1
342 536 1
342 614 1
342 655 1
342 783 1
343 499 1
343 503 1
343 550 1
343 652 1
343 749 1
344 393 1
344 398 1
344 451 1
344 453 1
344 472 1
344 482 1
344 565 1
344 699 1
344 763 1
345 348 1
345 404 1
345 549 1
345 565 1
345 632 1
345 699 1
345 742 1
345 785 1
345 790 1
346 409 1
346 533 1
346 596 1
346 692 1
346 733 1
347 453 1
347 684 1
347 789 1
347 799 1
348 349 1
348 536 1
348 703 1
349 423 1
349 544 1
349 559 1
349 586 1
350 442 1
350 537 1
350 575 1
350 728 1
350 734 1
350 763 1
351 607 1
351 720 1
351 752 1
351 798 1
352 449 1
352 486 1
352 541 1
352 721 1
352 785 1
353 373 1
353 497 1
353 525 1
353 549 1
353 556 1
353 582 1
353 705 1
354 476 1
354 635 1
354 666 1
354 681 1
355 395 1
355 445 1
355 532 1
355 568 1
355 697 1
355 721 1
356 416 1
356 420 1
356 456 1
356 521 1
356 546 1
356 772 1
356 773 1
357 513 1
357 527 1
357 560 1
357 562 1
357 708 1
357 714 1
357 790 1
357 794 1
358 436 1
358 501 1
358 555 1
359 442 1
359 562 1
359 592 1
359 600 1
359 670 1
360 589 1
360 592 1
360 790 1
361 383 1
361 496 1
361 524 1
361 557 1
361 566 1
361 744 1
362 436 1
362 451 1
362 687 1
362 770 1
362 790 1
363 384 1
363 626 1
363 758 1
364 547 1
364 595 1
364 662 1
364 738 1
365 448 1
365 464 1
365 529 1
365 687 1
365 717 1
366 369 1
366 467 1
366 675 1
366 715 1
366 717 1
366 730 1
366 734 1
366 800 1
367 468 1
367 573 1
367 720 1
367 790 1
368 594 1
368 700 1
368 714 1
368 734 1
369 445 1
369 506 1
369 546 1
369 651 1
369 758 1
370 441 1
370 474 1
370 648 1
370 784 1
371 582 1
371 707 1
371 764 1
372 414 1
372 415 1
372 554 1
372 569 1
372 682 1
372 706 1
373 712 1
373 734 1
374 537 1
374 569 1
375 484 1
375 535 1
375 678 1
375 722 1
376 385 1
376 412 1
376 622 1
376 661 1
376 737 1
376 748 1
377 454 1
377 458 1
377 495 1
377 627 1
378 400 1
378 430 1
378 467 1
378 636 1
378 694 1
379 604 1
379 642 1
379 721 1
379 799 1
380 547 1
380 580 1
380 581 1
381 482 1
381 518 1
381 601 1
381 604 1
381 638 1
381 755 1
382 461 1
382 500 1
382 547 1
382 570 1
382 603 1
382 658 1
382 758 1
382 773 1
383 398 1
383 477 1
383 621 1
383 645 1
383 664 1
383 702 1
384 496 1
384 626 1
384 664 1
384 696 1
384 719 1
384 743 1
385 434 1
385 593 1
385 649 1
385 716 1
386 406 1
386 578 1
386 789 1
386 793 1
387 614 1
387 763 1
387 764 1
388 447 1
388 600 1
388 638 1
388 707 1
388 723 1
389 531 1
389 583 1
389 682 1
389 700 1
389 777 1
390 487 1
390 564 1
390 612 1
390 670 1
390 729 1
391 610 1
391 680 1
391 724 1
392 443 1
392 540 1
392 547 1
392 551 1
392 578 1
392 720 1
392 776 1
393 531 1
393 600 1
393 665 1
393 686 1
394 397 1
394 447 1
394 476 1
394 647 1
394 692 1
394 772 1
395 448 1
395 536 1
395 620 1
395 689 1
395 740 1
396 458 1
396 543 1
396 565 1
396 584 1
396 587 1
396 615 1
396 622 1
396 749 1
397 407 1
397 484 1
397 560 1
398 487 1
398 570 1
398 676 1
398 792 1
398 797 1
399 423 1
399 508 1
399 549 1
399 555 1
399 761 1
400 414 1
400 536 1
400 589 1
400 615 1
400 663 1
400 685 1
400 784 1
401 437 1
401 438 1
401 460 1
401 653 1
401 670 1
402 417 1
402 667 1
402 702 1
402 708 1
403 483 1
403 608 1
403 661 1
403 784 1
403 794 1
404 466 1
404 473 1
404 547 1
404 598 1
404 647 1
404 668 1
404 787 1
405 407 1
405 708 1
405 724 1
405 744 1
405 793 1
406 455 1
406 550 1
406 636 1
406 666 1
406 682 1
406 683 1
406 720 1
407 581 1
407 614 1
407 618 1
407 651 1
407 657 1
408 519 1
408 539 1
408 572 1
408 718 1
408 760 1
408 786 1
409 480 1
409 525 1
409 571 1
409 626 1
409 645 1
409 781 1
410 423 1
410 578 1
410 658 1
410 664 1
410 757 1
411 547 1
411 576 1
411 618 1
411 656 1
411 666 1
411 776 1
412 434 1
412 439 1
412 450 1
412 643 1
412 770 1
412 783 1
413 529 1
413 586 1
413 662 1
413 678 1
413 696 1
413 699 1
414 457 1
414 490 1
414 648 1
415 432 1
415 459 1
415 497 1
415 544 1
415 565 1
415 781 1
416 439 1
416 460 1
416 611 1
416 665 1
416 678 1
417 501 1
417 532 1
417 710 1
418 521 1
418 540 1
418 557 1
418 714 1
418 717 1
418 761 1
419 493 1
419 511 1
419 558 1
419 571 1
419 624 1
419 786 1
420 541 1
420 553 1
420 696 1
420 699 1
420 716 1
420 784 1
421 427 1
421 509 1
421 525 1
421 564 1
421 576 1
421 745 1
421 751 1
422 450 1
422 546 1
422 550 1
423 645 1
423 646 1
423 775 1
424 549 1
424 556 1
424 582 1
424 607 1
425 583 1
425 608 1
425 663 1
425 741 1
425 745 1
425 782 1
426 489 1
426 500 1
426 655 1
426 750 1
426 786 1
427 463 1
427 549 1
427 672 1
427 721 1
428 432 1
428 440 1
428 542 1
428 585 1
428 588 1
429 467 1
429 506 1
429 643 1
429 706 1
430 546 1
430 614 1
430 616 1
430 679 1
430 681 1
431 509 1
431 534 1
431 631 1
431 688 1
431 696 1
431 746 1
431 747 1
431 777 1
432 567 1
432 592 1
432 611 1
432 772 1
432 778 1
433 452 1
433 589 1
433 599 1
434 487 1
434 503 1
434 668 1
434 791 1
435 671 1
436 466 1
436 490 1
436 610 1
436 711 1
436 740 1
437 484 1
437 568 1
437 763 1
438 630 1
438 693 1
438 736 1
439 475 1
439 543 1
439 557 1
440 444 1
440 449 1
440 684 1
440 691 1
441 466 1
441 560 1
441 584 1
441 652 1
441 666 1
441 732 1
441 736 1
442 471 1
442 634 1
442 717 1
442 755 1
443 483 1
443 486 1
443 560 1
443 667 1
444 515 1
444 681 1
444 765 1
445 449 1
445 522 1
445 542 1
445 620 1
445 796 1
446 481 1
446 518 1
446 529 1
446 662 1
446 686 1
447 641 1
447 735 1
448 490 1
448 751 1
448 788 1
449 512 1
449 576 1
449 590 1
449 746 1
450 453 1
450 498 1
450 512 1
450 527 1
450 543 1
450 658 1
451 564 1
451 590 1
451 662 1
452 525 1
452 574 1
452 692 1
452 726 1
453 530 1
453 756 1
454 585 1
454 773 1
455 574 1
455 580 1
455 604 1
455 661 1
455 725 1
456 595 1
456 638 1
456 681 1
457 462 1
457 501 1
457 504 1
457 526 1
457 529 1
457 587 1
457 800 1
458 589 1
458 597 1
458 602 1
458 638 1
458 713 1
458 749 1
458 751 1
459 552 1
459 640 1
459 742 1
459 785 1
460 575 1
460 617 1
460 716 1
460 738 1
460 766 1
461 564 1
461 593 1
461 642 1
461 651 1
461 749 1
462 505 1
462 506 1
462 679 1
463 610 1
463 613 1
463 617 1
463 668 1
463 762 1
463 763 1
464 505 1
464 542 1
464 668 1
464 709 1
465 483 1
465 519 1
465 551 1
465 593 1
465 643 1
465 652 1
465 712 1
465 792 1
466 581 1
466 676 1
467 754 1
468 477 1
468 500 1
468 586 1
468 608 1
468 711 1
468 723 1
468 736 1
469 521 1
469 550 1
469 556 1
469 586 1
469 613 1
469 684 1
469 696 1
469 733 1
470 509 1
470 604 1
470 648 1
470 735 1
471 543 1
471 575 1
471 674 1
471 734 1
472 496 1
472 505 1
472 630 1
472 725 1
472 759 1
472 790 1
473 488 1
473 537 1
473 618 1
473 786 1
474 538 1
474 580 1
474 597 1
474 623 1
474 717 1
475 504 1
475 512 1
475 523 1
475 615 1
475 762 1
476 501 1
476 506 1
476 535 1
476 632 1
476 649 1
477 719 1
477 780 1
478 594 1
478 699 1
478 732 1
478 745 1
478 769 1
479 544 1
479 608 1
479 688 1
479 701 1
479 716 1
479 721 1
480 650 1
480 658 1
480 695 1
480 767 1
480 776 1
480 784 1
481 580 1
481 661 1
482 545 1
482 571 1
482 594 1
482 743 1
483 570 1
483 663 1
483 675 1
483 721 1
484 543 1
484 588 1
484 640 1
484 733 1
484 744 1
485 605 1
485 687 1
485 703 1
485 760 1
485 782 1
486 519 1
486 560 1
486 616 1
486 653 1
486 743 1
486 744 1
486 777 1
487 506 1
487 533 1
487 550 1
487 651 1
487 693 1
487 752 1
488 639 1
488 653 1
488 735 1
488 793 1
489 613 1
489 687 1
490 552 1
491 502 1
491 573 1
491 618 1
491 785 1
492 530 1
492 591 1
492 614 1
492 711 1
492 722 1
492 788 1
493 570 1
493 686 1
494 504 1
494 598 1
494 773 1
494 775 1
494 800 1
495 551 1
495 596 1
495 607 1
495 626 1
495 786 1
496 550 1
496 570 1
497 584 1
497 591 1
497 640 1
497 668 1
497 679 1
498 526 1
498 534 1
498 569 1
498 578 1
498 579 1
498 663 1
499 685 1
499 711 1
499 713 1
500 521 1
500 664 1
500 668 1
500 679 1
500 755 1
501 517 1
501 573 1
501 672 1
502 635 1
502 643 1
502 644 1
502 679 1
502 680 1
502 735 1
503 536 1
504 554 1
504 644 1
504 670 1
504 693 1
505 631 1
505 682 1
505 789 1
506 510 1
506 636 1
506 647 1
506 692 1
506 733 1
506 759 1
507 583 1
507 694 1
508 526 1
508 662 1
508 684 1
508 699 1
509 557 1
509 682 1
509 701 1
509 722 1
509 757 1
510 553 1
510 566 1
510 678 1
511 558 1
511 568 1
511 585 1
511 599 1
512 677 1
512 699 1
512 754 1
513 585 1
513 645 1
514 622 1
514 660 1
514 668 1
514 776 1
515 520 1
515 534 1
515 556 1
515 771 1
516 565 1
517 669 1
517 777 1
518 528 1
518 545 1
518 610 1
518 719 1
518 727 1
519 526 1
519 547 1
519 637 1
519 749 1
519 770 1
520 614 1
520 725 1
520 752 1
521 637 1
521 686 1
521 756 1
521 785 1
522 524 1
522 568 1
522 599 1
522 663 1
522 686 1
522 741 1
523 569 1
523 616 1
523 757 1
524 600 1
524 620 1
524 634 1
524 664 1
524 739 1
524 769 1
525 533 1
525 542 1
525 549 1
525 587 1
525 702 1
526 739 1
527 553 1
527 631 1
527 661 1
527 699 1
527 703 1
528 775 1
529 771 1
529 792 1
530 554 1
530 605 1
530 704 1
530 708 1
530 714 1
531 544 1
531 779 1
531 783 1
531 788 1
532 627 1
532 674 1
532 707 1
532 708 1
533 559 1
533 603 1
533 714 1
534 582 1
534 617 1
534 660 1
534 705 1
534 743 1
534 800 1
535 578 1
535 626 1
535 671 1
536 616 1
536 648 1
537 689 1
538 671 1
538 746 1
538 780 1
539 660 1
539 671 1
539 691 1
539 765 1
540 544 1
540 618 1
540 667 1
541 546 1
541 781 1
542 614 1
542 627 1
542 696 1
542 738 1
542 780 1
543 554 1
543 719 1
543 728 1
544 698 1
544 718 1
544 756 1
544 763 1
544 787 1
545 555 1
545 599 1
545 753 1
546 644 1
547 740 1
547 742 1
547 757 1
547 793 1
548 707 1
548 778 1
548 794 1
549 580 1
549 682 1
549 793 1
550 559 1
550 573 1
550 648 1
550 693 1
550 767 1
551 552 1
551 608 1
551 652 1
552 627 1
552 638 1
552 729 1
553 650 1
554 635 1
554 674 1
554 713 1
554 754 1
555 560 1
555 718 1
555 744 1
555 771 1
556 640 1
556 657 1
556 738 1
556 755 1
558 600 1
558 616 1
558 662 1
559 582 1
559 583 1
559 600 1
559 653 1
559 792 1
560 586 1
560 609 1
561 625 1
561 644 1
562 586 1
562 772 1
563 676 1
563 708 1
563 728 1
564 566 1
564 684 1
564 685 1
565 572 1
565 670 1
565 775 1
565 789 1
566 572 1
566 600 1
566 636 1
566 658 1
566 778 1
567 568 1
567 714 1
567 761 1
567 763 1
567 764 1
568 571 1
568 580 1
568 666 1
568 689 1
568 763 1
568 785 1
569 575 1
569 738 1
569 774 1
570 616 1
570 622 1
570 692 1
570 725 1
570 792 1
571 690 1
572 612 1
572 640 1
572 745 1
572 760 1
572 781 1
573 620 1
573 798 1
574 667 1
574 670 1
574 727 1
574 746 1
574 783 1
574 799 1
575 644 1
575 706 1
576 660 1
576 670 1
576 690 1
576 698 1
576 741 1
576 797 1
577 649 1
577 655 1
577 751 1
578 584 1
578 603 1
578 622 1
578 626 1
578 761 1
579 699 1
580 690 1
580 697 1
580 785 1
581 683 1
581 717 1
581 749 1
581 771 1
582 636 1
582 681 1
582 731 1
582 755 1
583 645 1
583 742 1
584 637 1
584 709 1
585 724 1
585 775 1
586 636 1
586 648 1
586 660 1
587 621 1
587 638 1
587 664 1
587 758 1
588 691 1
588 786 1
589 686 1
589 714 1
589 762 1
590 667 1
590 685 1
590 697 1
590 774 1
590 797 1
591 655 1
591 661 1
591 797 1
592 635 1
592 755 1
593 598 1
593 645 1
593 795 1
594 687 1
594 691 1
595 744 1
596 667 1
596 744 1
596 760 1
596 767 1
597 655 1
597 662 1
597 683 1
597 731 1
598 709 1
598 754 1
598 778 1
599 615 1
599 673 1
600 679 1
600 717 1
601 654 1
602 717 1
602 791 1
603 623 1
603 690 1
603 713 1
604 607 1
604 634 1
604 665 1
604 716 1
604 798 1
606 635 1
606 656 1
606 723 1
607 643 1
607 648 1
607 789 1
608 660 1
608 675 1
608 720 1
608 785 1
609 687 1
610 666 1
610 793 1
611 653 1
611 788 1
611 789 1
612 626 1
612 717 1
612 746 1
613 699 1
613 724 1
613 762 1
613 780 1
614 687 1
614 726 1
614 742 1
615 634 1
615 652 1
615 683 1
615 691 1
616 704 1
616 754 1
617 666 1
617 714 1
618 772 1
618 778 1
619 791 1
620 642 1
621 734 1
621 776 1
622 744 1
622 747 1
622 763 1
624 683 1
625 678 1
625 724 1
626 637 1
626 709 1
626 751 1
627 700 1
627 715 1
627 800 1
628 713 1
628 761 1
629 799 1
630 702 1
630 716 1
630 718 1
631 734 1
632 751 1
632 765 1
632 795 1
633 635 1
633 661 1
633 666 1
633 692 1
633 762 1
635 719 1
637 690 1
637 762 1
639 661 1
639 789 1
639 798 1
641 668 1
642 676 1
642 686 1
642 754 1
644 660 1
644 710 1
644 782 1
645 796 1
646 708 1
646 725 1
646 732 1
647 669 1
647 673 1
647 683 1
647 791 1
648 666 1
648 713 1
649 650 1
649 685 1
649 692 1
649 786 1
650 730 1
651 737 1
651 785 1
652 747 1
652 763 1
653 729 1
654 674 1
654 703 1
655 725 1
656 667 1
656 686 1
657 681 1
657 685 1
658 697 1
658 739 1
659 706 1
659 737 1
660 689 1
660 716 1
661 727 1
661 784 1
661 791 1
662 682 1
662 692 1
662 763 1
662 775 1
663 688 1
663 705 1
664 686 1
664 751 1
665 684 1
665 734 1
666 731 1
667 673 1
667 691 1
667 755 1
672 772 1
672 788 1
674 690 1
675 768 1
675 770 1
677 736 1
678 782 1
678 798 1
679 706 1
679 748 1
679 778 1
680 699 1
682 714 1
682 739 1
683 706 1
684 734 1
684 735 1
685 745 1
686 788 1
687 753 1
687 785 1
689 731 1
691 760 1
691 770 1
692 761 1
693 786 1
694 698 1
695 738 1
695 783 1
696 744 1
697 784 1
698 699 1
698 755 1
699 745 1
700 702 1
700 725 1
702 713 1
702 763 1
703 746 1
703 768 1
704 723 1
704 728 1
704 791 1
705 792 1
706 733 1
706 741 1
707 791 1
708 733 1
711 715 1
711 757 1
711 791 1
711 799 1
712 713 1
712 727 1
714 789 1
717 733 1
717 765 1
717 777 1
719 758 1
719 796 1
720 794 1
721 723 1
721 726 1
724 781 1
725 727 1
725 794 1
726 756 1
726 788 1
727 729 1
727 799 1
730 782 1
731 759 1
732 788 1
733 754 1
733 800 1
735 783 1
736 750 1
736 776 1
736 785 1
737 760 1
738 763 1
739 771 1
741 744 1
743 774 1
744 751 1
752 770 1
752 784 1
753 763 1
757 790 1
758 772 1
759 769 1
759 773 1
760 771 1
763 776 1
764 800 1
777 780 1
777 800 1
780 783 1
781 800 1
783 797 1
788 800 1
790 792 1
794 800 1
